enum Men   = { Richard, James, John, Hugh, Greg };
enum Women = { Helen, Tracy, Linda, Sally, Wanda };

rankWomen = array2d(Women, Men, [|1, 2, 4, 3, 5,
                                 |3, 5, 1, 2, 4,
                                 |5, 4, 2, 1, 3,
                                 |1, 3, 5, 4, 2,
                                 |4, 2, 3, 5, 1 |]);
rankMen   = array2d(Men, Women, [|5, 1, 2, 4, 3,
                                 |4, 1, 3, 2, 5,
                                 |5, 3, 2, 4, 1,
                                 |1, 5, 4, 3, 2,
                                 |4, 3, 2, 1, 5 |]);
